p cnf 12 50 
-8 -7 2 0
-8 7 3 0
11 4 1 0
3 12 -8 0
-1 10 12 0
-5 8 -3 0
-10 12 9 0
-8 7 9 0
-11 7 12 0
-11 2 4 0
-9 12 11 0
1 -9 -10 0
-10 -2 4 0
10 -5 -4 0
-6 10 -2 0
11 8 12 0
-6 -3 7 0
6 -10 2 0
2 -8 -7 0
4 -9 2 0
-9 -11 -5 0
6 -10 7 0
-5 6 -9 0
12 11 8 0
4 11 12 0
-9 10 -11 0
3 -10 -9 0
-10 2 3 0
-8 -5 -7 0
-11 -10 2 0
-5 2 11 0
3 1 5 0
3 -9 11 0
-9 1 -3 0
-5 4 9 0
-9 -11 6 0
5 2 -3 0
2 8 -6 0
-8 -6 -2 0
-7 5 11 0
-3 1 12 0
10 6 -11 0
-6 -2 -1 0
7 -3 4 0
-5 -1 12 0
-2 4 -7 0
5 11 6 0
-9 -7 -2 0
-5 -4 6 0
-12 6 11 0
